NAME : mr56
COMMENT : 56-city problem (DISC)
TYPE : TSP
DIMENSION : 56
EDGE_WEIGHT_TYPE : EUC_2D
NODE_COORD_SECTION
1 99 16
2 34 1
3 68 46
4 20 4
5 36 74
6 82 68
7 25 15
8 46 54
9 88 97
10 40 74
11 33 94
12 10 33
13 84 85
14 10 88
15 65 16
16 55 2
17 85 44
18 27 41
19 45 34
20 89 4
21 74 23
22 72 37
23 4 53
24 2 76
25 33 70
26 57 12
27 75 99
28 73 94
29 100 51
30 97 69
31 56 49
32 99 23
33 51 40
34 35 51
35 94 97
36 21 21
37 41 52
38 48 58
39 14 89
40 73 70
41 59 45
42 16 73
43 79 7
44 17 4
45 75 7
46 26 98
47 76 90
48 13 70
49 3 10
50 18 80
51 97 66
52 29 28
53 83 9
54 38 51
55 47 25
56 19 59
EOF
